; benchmark generated from python API
(set-info :status unknown)
(declare-datatypes ((RealState 0)) (((RMk1 (rval1 Real)) (RMk2 (rval2 Real)))))
 (assert
 (forall ((|v17:0| Real) )(forall ((|v16:1| Real) )(forall ((|v15:2| Real) )(forall ((|v14:3| Real) )(forall ((|v13:4| Real) )(forall ((|v12:5| Real) )(exists ((|v11:6_st| RealState) (val!8538 Real) )(exists ((|v10:7_st| RealState) (val!8539 Real) )(exists ((|v9:8_st| RealState) (val!8540 Real) )(exists ((|v8:9_st| RealState) (val!8541 Real) )(exists ((|v7:10_st| RealState) (val!8542 Real) )(exists ((|v6:11_st| RealState) (val!8543 Real) )(forall ((|v5:12| Real) )(forall ((|v4:13| Real) )(forall ((|v3:14| Real) )(forall ((|v2:15| Real) )(forall ((|v1:16| Real) )(forall ((|v0:17| Real) )(let ((?x2910 (- 6.0)))
 (let ((?x1064 (* 19.0 |v12:5|)))
 (let ((?x169 (- 5.0)))
 (let ((?x1798 (* ?x169 |v0:17|)))
 (let (($x373 (<= (+ (+ (+ (* ?x169 (rval2 |v6:11_st|)) (* 15.0 |v3:14|)) ?x1798) ?x1064) ?x2910)))
 (let ((?x2699 (- 9.0)))
 (let ((?x612 (* 2.0 |v1:16|)))
 (let ((?x2611 (+ (+ (* (- 8.0) (rval2 |v10:7_st|)) (* (- 4.0) (rval2 |v7:10_st|))) (* 11.0 (rval2 |v8:9_st|)))))
 (let ((?x3460 (rval2 |v11:6_st|)))
 (let ((?x1935 (* 16.0 ?x3460)))
 (let ((?x2810 (+ (+ (+ (* 12.0 |v12:5|) (* 5.0 |v13:4|)) (* (- 11.0) (rval2 |v9:8_st|))) ?x1935)))
 (let ((?x711 (+ (+ (+ (* 6.0 |v16:1|) (* 3.0 |v12:5|)) (* 16.0 |v0:17|)) (* (- 18.0) |v13:4|))))
 (let (($x3206 (or (or (<= ?x711 2.0) (<= ?x2810 15.0)) (and (<= (+ ?x2611 ?x612) ?x2699) $x373))))
 (let ((?x1419 (rval2 |v10:7_st|)))
 (let ((?x538 (* 5.0 ?x1419)))
 (let ((?x3354 (- 16.0)))
 (let ((?x2010 (* ?x3354 |v5:12|)))
 (let (($x811 (<= (+ (+ (+ (* 14.0 |v14:3|) (* (- 17.0) (rval2 |v6:11_st|))) ?x2010) ?x538) 13.0)))
 (let ((?x2673 (- 12.0)))
 (let (($x576 (<= (+ (+ (+ ?x2010 (* 6.0 |v0:17|)) (* 6.0 |v5:12|)) (* 20.0 |v3:14|)) ?x2673)))
 (let ((?x521 (- 18.0)))
 (let ((?x3055 (- 2.0)))
 (let ((?x1052 (* ?x3055 |v3:14|)))
 (let ((?x2299 (+ (+ (+ (* (- 1.0) |v14:3|) (* (- 19.0) |v1:16|)) (* 4.0 |v17:0|)) ?x1052)))
 (let ((?x1272 (+ (+ (* 8.0 |v2:15|) (* (- 11.0) |v16:1|)) (* (- 8.0) (rval2 |v6:11_st|)))))
 (let ((?x30 (* (- 20.0) |v4:13|)))
 (let ((?x635 (+ (+ (+ (* (- 14.0) |v14:3|) (* ?x2673 |v17:0|)) (* (- 10.0) |v12:5|)) ?x30)))
 (let ((?x216 (- 19.0)))
 (let (($x225 (<= (+ (+ (+ (* 8.0 |v15:2|) (* 11.0 |v16:1|)) |v13:4|) (* 10.0 ?x3460)) ?x216)))
 (let ((?x361 (- 7.0)))
 (let ((?x1197 (+ (+ (+ (* ?x2699 |v1:16|) (* 7.0 |v1:16|)) (* ?x2910 |v1:16|)) (* 3.0 |v1:16|))))
 (let (($x3445 (<= ?x1197 ?x361)))
 (let (($x2862 (and (and $x3445 $x225) (and (<= ?x635 4.0) (<= (+ ?x1272 (* (- 11.0) |v17:0|)) 16.0)))))
 (let ((?x3141 (- 3.0)))
 (let ((?x1666 (* ?x3141 |v0:17|)))
 (let (($x1995 (<= (+ (+ (+ (* ?x3055 |v5:12|) (* 7.0 |v14:3|)) (* 0.0 |v16:1|)) ?x1666) 16.0)))
 (let ((?x1877 (+ (+ (+ (* ?x361 |v1:16|) (* 3.0 |v3:14|)) (* 18.0 |v3:14|)) (* ?x521 |v4:13|))))
 (let (($x644 (<= ?x1877 10.0)))
 (let ((?x2386 (* 10.0 |v2:15|)))
 (let ((?x1225 (+ (+ (+ (* 18.0 |v14:3|) (* 2.0 (rval2 |v8:9_st|))) (* ?x3055 |v4:13|)) ?x2386)))
 (let (($x2314 (or (or (and (<= ?x1225 0.0) (or $x644 $x1995)) $x2862) (or (and (<= ?x2299 ?x521) (or $x576 $x811)) $x3206))))
 (let ((?x1632 (- 4.0)))
 (let ((?x2761 (* ?x1632 |v5:12|)))
 (let (($x2623 (<= (+ (+ (+ (* 17.0 |v17:0|) (* 15.0 |v12:5|)) (* 5.0 |v4:13|)) ?x2761) ?x361)))
 (let ((?x797 (* ?x1632 |v2:15|)))
 (let ((?x506 (+ (+ (* (- 8.0) (rval2 |v8:9_st|)) (* 9.0 (rval2 |v7:10_st|))) (* ?x2699 (rval2 |v7:10_st|)))))
 (let ((?x1196 (+ (+ (+ (* 0.0 ?x1419) (* 9.0 |v0:17|)) (* ?x3141 |v12:5|)) (* (- 15.0) |v14:3|))))
 (let ((?x2654 (* 5.0 |v3:14|)))
 (let ((?x2752 (* 15.0 ?x1419)))
 (let ((?x407 (+ (+ (+ (* 11.0 (rval2 |v9:8_st|)) (* (- 13.0) (rval2 |v8:9_st|))) ?x2752) ?x2654)))
 (let (($x280 (and (or (<= ?x407 6.0) (<= ?x1196 17.0)) (<= (+ ?x506 ?x797) 6.0))))
 (let ((?x185 (+ (+ (+ (* 18.0 |v13:4|) (* 4.0 |v4:13|)) (* 5.0 |v12:5|)) (* ?x2699 |v16:1|))))
 (let ((?x2379 (+ (+ (+ (* ?x3055 |v13:4|) (* 4.0 (rval2 |v8:9_st|))) (* 11.0 |v12:5|)) (* ?x216 ?x1419))))
 (let ((?x2576 (+ (+ (+ (* 2.0 (rval2 |v6:11_st|)) (* (- 8.0) |v17:0|)) (* ?x3055 |v2:15|)) (* (- 10.0) |v17:0|))))
 (let ((?x295 (- 11.0)))
 (let ((?x316 (* 9.0 |v0:17|)))
 (let ((?x1668 (+ (+ (+ (* ?x3354 (rval2 |v8:9_st|)) (* (- 17.0) |v4:13|)) (* ?x2910 |v12:5|)) ?x316)))
 (let (($x3040 (and (or (<= ?x1668 ?x295) (<= ?x2576 2.0)) (and (<= ?x2379 4.0) (<= ?x185 ?x3354)))))
 (let ((?x658 (* ?x2910 |v3:14|)))
 (let ((?x1656 (+ (+ (+ (* (- 8.0) ?x3460) (* 5.0 |v16:1|)) (* 12.0 (rval2 |v9:8_st|))) ?x658)))
 (let (($x785 (not (= |v6:11_st| (RMk1 val!8543)))))
 (let (($x1017 (not (= |v7:10_st| (RMk1 val!8542)))))
 (let (($x2912 (not (= |v8:9_st| (RMk1 val!8541)))))
 (let (($x2702 (not (= |v9:8_st| (RMk1 val!8540)))))
 (let (($x1978 (not (= |v10:7_st| (RMk1 val!8539)))))
 (let (($x891 (not (= |v11:6_st| (RMk1 val!8538)))))
 (and $x891 $x1978 $x2702 $x2912 $x1017 $x785 (or (<= ?x1656 ?x1632) (and (and (and $x3040 $x280) $x2623) $x2314))))))))))))))))))))))))))))))))))))))))))))))))))))))))))))))))))))))
 )
 )
 )
 )
 )
 )
 )
 )
 )
 )
 )
 )
 )
 )
 )
 )
 )
 )
(check-sat)
